; benchmark generated from python API
(set-info :status unknown)
(declare-fun s () Int)
(define-funs-rec ( ( Tn_01 ((x!1 Int)) Int)
                   ( pn_01 ((x!1 Int)) Int)
                   ( T2_01 ((x!1 Int)) Int)
                   ( p2_01 ((x!1 Int)) Int))
                 ( (mod ((_ pn_01 0) x!1) s)
                   (ite (= x!1 0) 0 (+ ((_ pn_01 0) (div x!1 s)) x!1))
                   (mod ((_ p2_01 0) x!1) 2)
                   (ite (= x!1 0) 0 (+ ((_ p2_01 0) (div x!1 2)) x!1))))
(assert
 (forall ((n Int) )(let ((?x1885 ((_ Tn_01 0) n)))
 (let (($x2853 (= ?x1885 n)))
 (let ((?x919 ((_ T2_01 0) n)))
 (let (($x5235 (= ?x919 n)))
 (let (($x5396 (and $x5235 $x2853)))
 (let (($x387 (< n s)))
 (let (($x810 (>= n 0)))
 (let (($x5518 (and $x810 $x387)))
 (=> $x5518 $x5396))))))))))
 )
(assert
 (let ((?x3405 ((_ T2_01 0) s)))
 (= ?x3405 1)))
(assert
 (let ((?x5197 ((_ Tn_01 0) s)))
 (= ?x5197 1)))
(assert
 (forall ((n Int) )(let ((?x1885 ((_ Tn_01 0) n)))
(let ((?x919 ((_ T2_01 0) n)))
(let (($x2754 (= ?x919 ?x1885)))
(let (($x810 (>= n 0)))
(=> $x810 $x2754))))))
)
(check-sat)
